(set-info :smt-lib-version 2.6)
(set-logic UF)
(set-info :source |Benchmarks from the paper: "Extending Sledgehammer with SMT Solvers" by Jasmin Blanchette, Sascha Bohme, and Lawrence C. Paulson, CADE 2011.  Translated to SMT2 by Andrew Reynolds and Morgan Deters.|)
(set-info :category "industrial")
(set-info :status sat)
(declare-sort S1 0)
(declare-sort S2 0)
(declare-sort S3 0)
(declare-sort S4 0)
(declare-sort S5 0)
(declare-sort S6 0)
(declare-sort S7 0)
(declare-sort S8 0)
(declare-sort S9 0)
(declare-sort S10 0)
(declare-sort S11 0)
(declare-fun f1 () S1)
(declare-fun f2 () S1)
(declare-fun f3 (S3 S2) S1)
(declare-fun f4 () S3)
(declare-fun f5 (S5 S4) S1)
(declare-fun f6 () S5)
(declare-fun f7 (S6) S1)
(declare-fun f8 () S6)
(declare-fun f9 (S3 S3) S1)
(declare-fun f10 () S3)
(declare-fun f11 (S7 S3) S3)
(declare-fun f12 (S2) S7)
(declare-fun f13 (S8 S6) S2)
(declare-fun f14 () S8)
(declare-fun f15 () S3)
(declare-fun f16 () S1)
(declare-fun f17 (S4 S5) S1)
(declare-fun f18 (S9) S5)
(declare-fun f19 () S9)
(declare-fun f20 (S4) S6)
(declare-fun f21 (S2 S3) S1)
(declare-fun f22 (S10 S5) S5)
(declare-fun f23 (S4) S10)
(declare-fun f24 () S5)
(declare-fun f25 () S1)
(declare-fun f26 (S3) S3)
(declare-fun f27 (S5) S5)
(assert (not (= f1 f2)))
(assert (forall ((?v0 S2)) (= (= (f3 f4 ?v0) f1) false)))
(assert (forall ((?v0 S4)) (= (= (f5 f6 ?v0) f1) false)))
(assert (not (=> (= (f7 f8) f1) (= (f9 f10 (f11 (f12 (f13 f14 f8)) f15)) f1))))
(assert (= f16 f1))
(assert (forall ((?v0 S4)) (=> (= (f17 ?v0 (f18 f19)) f1) (= (f9 f10 (f11 (f12 (f13 f14 (f20 ?v0))) f15)) f1))))
(assert (forall ((?v0 S3)) (= (f9 ?v0 f15) f1)))
(assert (forall ((?v0 S3) (?v1 S3) (?v2 S3)) (=> (= (f9 ?v0 ?v1) f1) (=> (= (f9 ?v2 ?v0) f1) (= (f9 ?v2 ?v1) f1)))))
(assert (forall ((?v0 S3) (?v1 S2) (?v2 S3)) (let ((?v_0 (f12 ?v1))) (=> (= (f9 ?v0 (f11 ?v_0 f15)) f1) (=> (= (f9 ?v0 ?v2) f1) (= (f9 ?v0 (f11 ?v_0 ?v2)) f1))))))
(assert (forall ((?v0 S3) (?v1 S2) (?v2 S3)) (let ((?v_0 (f12 ?v1))) (=> (= (f9 ?v0 (f11 ?v_0 ?v2)) f1) (and (= (f9 ?v0 (f11 ?v_0 f15)) f1) (= (f9 ?v0 ?v2) f1))))))
(assert (forall ((?v0 S2) (?v1 S2) (?v2 S3)) (=> (= (f21 ?v0 (f11 (f12 ?v1) ?v2)) f1) (=> (=> (= ?v0 ?v1) false) (=> (=> (= (f21 ?v0 ?v2) f1) false) false)))))
(assert (forall ((?v0 S4) (?v1 S4) (?v2 S5)) (=> (= (f17 ?v0 (f22 (f23 ?v1) ?v2)) f1) (=> (=> (= ?v0 ?v1) false) (=> (=> (= (f17 ?v0 ?v2) f1) false) false)))))
(assert (forall ((?v0 S2) (?v1 S3) (?v2 S2)) (=> (=> (not (= (f21 ?v0 ?v1) f1)) (= ?v0 ?v2)) (= (f21 ?v0 (f11 (f12 ?v2) ?v1)) f1))))
(assert (forall ((?v0 S4) (?v1 S5) (?v2 S4)) (=> (=> (not (= (f17 ?v0 ?v1) f1)) (= ?v0 ?v2)) (= (f17 ?v0 (f22 (f23 ?v2) ?v1)) f1))))
(assert (forall ((?v0 S4)) (=> (= (f17 ?v0 f24) f1) false)))
(assert (forall ((?v0 S2)) (=> (= (f21 ?v0 f15) f1) false)))
(assert (= (= f16 f1) (exists ((?v0 S11) (?v1 S11)) (not (= ?v0 ?v1)))))
(assert (=> (= f16 f1) (forall ((?v0 S11)) (=> (forall ((?v1 S11)) (= ?v1 ?v0)) false))))
(assert (forall ((?v0 S2) (?v1 S3)) (not (= f15 (f11 (f12 ?v0) ?v1)))))
(assert (forall ((?v0 S4) (?v1 S5)) (not (= f24 (f22 (f23 ?v0) ?v1)))))
(assert (forall ((?v0 S2) (?v1 S3)) (not (= (f11 (f12 ?v0) ?v1) f15))))
(assert (forall ((?v0 S4) (?v1 S5)) (not (= (f22 (f23 ?v0) ?v1) f24))))
(assert (forall ((?v0 S2) (?v1 S2)) (= (= (f21 ?v0 (f11 (f12 ?v1) f15)) f1) (= ?v0 ?v1))))
(assert (forall ((?v0 S4) (?v1 S4)) (= (= (f17 ?v0 (f22 (f23 ?v1) f24)) f1) (= ?v0 ?v1))))
(assert (forall ((?v0 S2) (?v1 S2) (?v2 S2) (?v3 S2)) (= (= (f11 (f12 ?v0) (f11 (f12 ?v1) f15)) (f11 (f12 ?v2) (f11 (f12 ?v3) f15))) (or (and (= ?v0 ?v2) (= ?v1 ?v3)) (and (= ?v0 ?v3) (= ?v1 ?v2))))))
(assert (forall ((?v0 S4) (?v1 S4) (?v2 S4) (?v3 S4)) (= (= (f22 (f23 ?v0) (f22 (f23 ?v1) f24)) (f22 (f23 ?v2) (f22 (f23 ?v3) f24))) (or (and (= ?v0 ?v2) (= ?v1 ?v3)) (and (= ?v0 ?v3) (= ?v1 ?v2))))))
(assert (forall ((?v0 S2) (?v1 S2)) (=> (= (f21 ?v0 (f11 (f12 ?v1) f15)) f1) (=> (=> (= ?v0 ?v1) false) false))))
(assert (forall ((?v0 S4) (?v1 S4)) (=> (= (f17 ?v0 (f22 (f23 ?v1) f24)) f1) (=> (=> (= ?v0 ?v1) false) false))))
(assert (forall ((?v0 S2) (?v1 S2)) (=> (= (f11 (f12 ?v0) f15) (f11 (f12 ?v1) f15)) (= ?v0 ?v1))))
(assert (forall ((?v0 S4) (?v1 S4)) (=> (= (f22 (f23 ?v0) f24) (f22 (f23 ?v1) f24)) (= ?v0 ?v1))))
(assert (forall ((?v0 S2)) (= (= (f3 f15 ?v0) f1) (= f25 f1))))
(assert (forall ((?v0 S4)) (= (= (f5 f24 ?v0) f1) (= f25 f1))))
(assert (forall ((?v0 S5) (?v1 S4)) (=> (= ?v0 f24) (not (= (f17 ?v1 ?v0) f1)))))
(assert (forall ((?v0 S3) (?v1 S2)) (=> (= ?v0 f15) (not (= (f21 ?v1 ?v0) f1)))))
(assert (forall ((?v0 S3)) (= (= (f26 ?v0) f15) (forall ((?v1 S2)) (not (= (f3 ?v0 ?v1) f1))))))
(assert (forall ((?v0 S5)) (= (= (f27 ?v0) f24) (forall ((?v1 S4)) (not (= (f5 ?v0 ?v1) f1))))))
(assert (forall ((?v0 S4)) (= (= (f17 ?v0 f24) f1) false)))
(assert (forall ((?v0 S2)) (= (= (f21 ?v0 f15) f1) false)))
(assert (forall ((?v0 S3)) (= (= f15 (f26 ?v0)) (forall ((?v1 S2)) (not (= (f3 ?v0 ?v1) f1))))))
(assert (forall ((?v0 S5)) (= (= f24 (f27 ?v0)) (forall ((?v1 S4)) (not (= (f5 ?v0 ?v1) f1))))))
(assert (forall ((?v0 S5)) (= (forall ((?v1 S4)) (=> (= (f17 ?v1 f24) f1) (= (f5 ?v0 ?v1) f1))) true)))
(assert (forall ((?v0 S3)) (= (forall ((?v1 S2)) (=> (= (f21 ?v1 f15) f1) (= (f3 ?v0 ?v1) f1))) true)))
(assert (forall ((?v0 S5)) (= (exists ((?v1 S4)) (and (= (f17 ?v1 f24) f1) (= (f5 ?v0 ?v1) f1))) false)))
(assert (forall ((?v0 S3)) (= (exists ((?v1 S2)) (and (= (f21 ?v1 f15) f1) (= (f3 ?v0 ?v1) f1))) false)))
(assert (forall ((?v0 S5)) (= (exists ((?v1 S4)) (= (f17 ?v1 ?v0) f1)) (not (= ?v0 f24)))))
(assert (forall ((?v0 S3)) (= (exists ((?v1 S2)) (= (f21 ?v1 ?v0) f1)) (not (= ?v0 f15)))))
(assert (forall ((?v0 S5)) (= (forall ((?v1 S4)) (not (= (f17 ?v1 ?v0) f1))) (= ?v0 f24))))
(assert (forall ((?v0 S3)) (= (forall ((?v1 S2)) (not (= (f21 ?v1 ?v0) f1))) (= ?v0 f15))))
(assert (= f15 (f26 f4)))
(assert (= f24 (f27 f6)))
(assert (forall ((?v0 S2) (?v1 S3)) (=> (= (f21 ?v0 ?v1) f1) (= (f11 (f12 ?v0) ?v1) ?v1))))
(assert (forall ((?v0 S4) (?v1 S5)) (=> (= (f17 ?v0 ?v1) f1) (= (f22 (f23 ?v0) ?v1) ?v1))))
(assert (forall ((?v0 S2) (?v1 S3) (?v2 S2)) (=> (= (f21 ?v0 ?v1) f1) (= (f21 ?v0 (f11 (f12 ?v2) ?v1)) f1))))
(assert (forall ((?v0 S4) (?v1 S5) (?v2 S4)) (=> (= (f17 ?v0 ?v1) f1) (= (f17 ?v0 (f22 (f23 ?v2) ?v1)) f1))))
(assert (forall ((?v0 S2) (?v1 S3) (?v2 S3)) (let ((?v_0 (f12 ?v0))) (=> (not (= (f21 ?v0 ?v1) f1)) (=> (not (= (f21 ?v0 ?v2) f1)) (= (= (f11 ?v_0 ?v1) (f11 ?v_0 ?v2)) (= ?v1 ?v2)))))))
(assert (forall ((?v0 S4) (?v1 S5) (?v2 S5)) (let ((?v_0 (f23 ?v0))) (=> (not (= (f17 ?v0 ?v1) f1)) (=> (not (= (f17 ?v0 ?v2) f1)) (= (= (f22 ?v_0 ?v1) (f22 ?v_0 ?v2)) (= ?v1 ?v2)))))))
(assert (forall ((?v0 S2) (?v1 S3) (?v2 S2)) (= (= (f3 (f11 (f12 ?v0) ?v1) ?v2) f1) (or (= ?v0 ?v2) (= (f3 ?v1 ?v2) f1)))))
(assert (forall ((?v0 S4) (?v1 S5) (?v2 S4)) (= (= (f5 (f22 (f23 ?v0) ?v1) ?v2) f1) (or (= ?v0 ?v2) (= (f5 ?v1 ?v2) f1)))))
(assert (forall ((?v0 S2) (?v1 S2) (?v2 S3)) (= (= (f21 ?v0 (f11 (f12 ?v1) ?v2)) f1) (or (= ?v0 ?v1) (= (f21 ?v0 ?v2) f1)))))
(assert (forall ((?v0 S4) (?v1 S4) (?v2 S5)) (= (= (f17 ?v0 (f22 (f23 ?v1) ?v2)) f1) (or (= ?v0 ?v1) (= (f17 ?v0 ?v2) f1)))))
(assert (forall ((?v0 S2) (?v1 S2) (?v2 S3)) (let ((?v_1 (f12 ?v0)) (?v_0 (f12 ?v1))) (= (f11 ?v_1 (f11 ?v_0 ?v2)) (f11 ?v_0 (f11 ?v_1 ?v2))))))
(assert (forall ((?v0 S4) (?v1 S4) (?v2 S5)) (let ((?v_1 (f23 ?v0)) (?v_0 (f23 ?v1))) (= (f22 ?v_1 (f22 ?v_0 ?v2)) (f22 ?v_0 (f22 ?v_1 ?v2))))))
(assert (forall ((?v0 S2) (?v1 S3)) (let ((?v_0 (f12 ?v0))) (let ((?v_1 (f11 ?v_0 ?v1))) (= (f11 ?v_0 ?v_1) ?v_1)))))
(assert (forall ((?v0 S4) (?v1 S5)) (let ((?v_0 (f23 ?v0))) (let ((?v_1 (f22 ?v_0 ?v1))) (= (f22 ?v_0 ?v_1) ?v_1)))))
(check-sat)
(exit)
